n = 32;
lu = [|-911, 438
      |-902, -85
      |469, 569
      |-760, 713
      |230, 373
      |-637, -390
      |-629, 99
      |-1018, 397
      |-671, -390
      |-774, 488
      |-780, 21
      |-341, 560
      |171, 245
      |261, 539
      |-181, -153
      |-290, 831
      |-487, 581
      |-57, 712
      |-566, -7
      |-718, 796
      |126, 675
      |-545, 134
      |-309, -214
      |376, 636
      |-655, 823
      |696, 919
      |461, 867
      |-488, 794
      |-450, 103
      |-382, -67
      |189, 250
      |-744, 202|];
